81 92182
66 50 3 81 26 25 65 54 67 9 48 55 36 14 2 33 53 30 78 31 6 11 59 20 28 71 40 74 17 44 21 19 46 12 29 80 27 56 41 49 38 51 73 10 69 45 62 5 7 24 13 58 63 77 68 52 1 32 43 18 75 37 47 72 42 70 15 22 61 79 4 34 8 57 23 39 35 16 64 60 76 
